words_easy_train/words_376_SAT.qaiger
aag 62 16 0 1 46
16
18
6
22
28
30
32
12
20
2
26
24
4
10
8
14
125
34 25 23
36 35 26
38 36 28
40 39 31
42 33 17
44 32 16
46 45 43
48 47 40
50 24 9
52 25 8
54 53 51
56 55 6
58 56 23
60 54 7
62 60 22
64 63 59
66 65 49
68 37 29
70 69 39
72 70 12
74 71 13
76 75 73
78 77 66
80 34 27
82 81 37
84 83 10
86 20 5
88 21 4
90 89 87
92 90 85
94 82 11
96 31 15
98 30 14
100 99 97
102 100 38
104 103 95
106 104 92
108 46 41
110 19 3
112 18 2
114 113 111
116 101 39
118 117 115
120 118 109
122 120 106
124 122 78
i0 1 x2[7]
i1 2 y2[0]
i2 1 x2[2]
i3 2 y2[2]
i4 2 y2[5]
i5 2 y2[6]
i6 2 y2[7]
i7 1 x2[5]
i8 2 y2[1]
i9 1 x2[0]
i10 2 y2[4]
i11 2 y2[3]
i12 1 x2[1]
i13 1 x2[4]
i14 1 x2[3]
i15 1 x2[6]
o0 bool[0]
c
simplified
  !=
    1 x2
    subtract
      204
      unary minus
        2 y2
