words_easy_train/words_376_SAT.qaiger.qdimacs
p cnf 62 139
a 1 2 3 4 5 6 7 8 0
e 9 10 11 12 13 14 15 16 17 18 19 20 21 22 23 24 25 26 27 28 29 30 31 32 33 34 35 36 37 38 39 40 41 42 43 44 45 46 47 48 49 50 51 52 53 54 55 56 57 58 59 60 61 62 0
12 11 17 0
-12 -17 0
-11 -17 0
17 -13 18 0
-17 -18 0
13 -18 0
-18 -14 19 0
18 -19 0
14 -19 0
19 15 20 0
-19 -20 0
-15 -20 0
16 8 21 0
-16 -21 0
-8 -21 0
-16 -8 22 0
16 -22 0
8 -22 0
22 21 23 0
-22 -23 0
-21 -23 0
23 -20 24 0
-23 -24 0
20 -24 0
-12 4 25 0
12 -25 0
-4 -25 0
12 -4 26 0
-12 -26 0
4 -26 0
26 25 27 0
-26 -27 0
-25 -27 0
27 -3 28 0
-27 -28 0
3 -28 0
-28 11 29 0
28 -29 0
-11 -29 0
-27 3 30 0
27 -30 0
-3 -30 0
-30 -11 31 0
30 -31 0
11 -31 0
31 29 32 0
-31 -32 0
-29 -32 0
32 24 33 0
-32 -33 0
-24 -33 0
18 14 34 0
-18 -34 0
-14 -34 0
34 19 35 0
-34 -35 0
-19 -35 0
-35 -6 36 0
35 -36 0
6 -36 0
35 6 37 0
-35 -37 0
-6 -37 0
37 36 38 0
-37 -38 0
-36 -38 0
38 -33 39 0
-38 -39 0
33 -39 0
-17 13 40 0
17 -40 0
-13 -40 0
40 18 41 0
-40 -41 0
-18 -41 0
41 -5 42 0
-41 -42 0
5 -42 0
-10 2 43 0
10 -43 0
-2 -43 0
10 -2 44 0
-10 -44 0
2 -44 0
44 43 45 0
-44 -45 0
-43 -45 0
-45 42 46 0
45 -46 0
-42 -46 0
-41 5 47 0
41 -47 0
-5 -47 0
15 7 48 0
-15 -48 0
-7 -48 0
-15 -7 49 0
15 -49 0
7 -49 0
49 48 50 0
-49 -50 0
-48 -50 0
-50 -19 51 0
50 -51 0
19 -51 0
51 47 52 0
-51 -52 0
-47 -52 0
-52 -46 53 0
52 -53 0
46 -53 0
-23 20 54 0
23 -54 0
-20 -54 0
9 1 55 0
-9 -55 0
-1 -55 0
-9 -1 56 0
9 -56 0
1 -56 0
56 55 57 0
-56 -57 0
-55 -57 0
50 19 58 0
-50 -58 0
-19 -58 0
58 57 59 0
-58 -59 0
-57 -59 0
-59 54 60 0
59 -60 0
-54 -60 0
-60 -53 61 0
60 -61 0
53 -61 0
-61 -39 62 0
61 -62 0
39 -62 0
-62 0
